
Gurobi 10.0.1 (win64) logging started Sat Jun 10 18:09:33 2023

Set parameter LogFile to value "results/log/Fattahi_setup_07_modified_deadline.log"
Gurobi Optimizer version 10.0.1 build v10.0.1rc0 (win64)

CPU model: AMD Ryzen 7 3700X 8-Core Processor, instruction set [SSE2|AVX|AVX2]
Thread count: 8 physical cores, 16 logical processors, using up to 16 threads

Optimize a model with 123 rows, 136 columns and 390 nonzeros
Model fingerprint: 0x10a94930
Variable types: 0 continuous, 136 integer (117 binary)
Coefficient statistics:
  Matrix range     [1e+00, 1e+09]
  Objective range  [1e+00, 1e+00]
  Bounds range     [1e+00, 1e+00]
  RHS range        [1e+00, 3e+09]
Warning: Model contains large matrix coefficients
Warning: Model contains large rhs
         Consider reformulating model or setting NumericFocus parameter
         to avoid numerical issues.
Presolve removed 51 rows and 92 columns
Presolve time: 0.00s
Presolved: 72 rows, 44 columns, 298 nonzeros
Variable types: 0 continuous, 44 integer (25 binary)

Root relaxation: objective 6.720000e+02, 18 iterations, 0.00 seconds (0.00 work units)

    Nodes    |    Current Node    |     Objective Bounds      |     Work
 Expl Unexpl |  Obj  Depth IntInf | Incumbent    BestBd   Gap | It/Node Time

     0     0  672.00001    0    8          -  672.00001      -     -    0s
H    0     0                     696.0000000  672.00001  3.45%     -    0s

Cutting planes:
  Implied bound: 2
  Flow cover: 3

Explored 1 nodes (18 simplex iterations) in 0.01 seconds (0.00 work units)
Thread count was 16 (of 16 available processors)

Solution count 1: 696 

Optimal solution found (tolerance 1.00e-04)
Best objective 6.960000000000e+02, best bound 6.960000000000e+02, gap 0.0000%
Warning: variable name "y[job:0, stage:0, machine:1]" has a space
Warning: constraint name "precedence between 1,0 to 0,0 if x_[j,l,h,z,i]=1" has a space
Warning: to let Gurobi read it back, use rlp format
Warning: variable name "y[job:0, stage:0, machine:1]" has a space
Warning: constraint name "precedence between 1,0 to 0,0 if x_[j,l,h,z,i]=1" has a space
Warning: default variable names used to write mps file
Warning: default constraint names used to write mps file
Warning: variable name "y[job:0, stage:0, machine:1]" has a space
Warning: default variable names used to write solution file
